&CONTROL
  calculation='scf',
  prefix='calc',
  pseudo_dir='/home/lls34/programs/QuantumExpresso/pseudopotentials/use_pot',
  outdir='.',
  tprnfor=.true.,
  tstress=.true.,
  etot_conv_thr=1d0,
  forc_conv_thr=0.0019446903957408628d00,
/
&SYSTEM
  ibrav=0,
  celldm(1)=1.8897261245650618d0,
  nat=1,
  ntyp=1,
  ecutwfc=65.0d00,
  ecutrho=520.0d00,
  nbnd=26,
  occupations='smearing',
  smearing='gaussian',
  degauss=0.007349864494991328d00,
  nspin=2,
  starting_magnetization(1)=0.0d00,
  input_dft='PBE',
  nosym=.false.,
  noinv=.false.,
  nosym_evc=.false.,
  no_t_rev=.false.,
/
&ELECTRONS
  diagonalization='david',
  conv_thr=7.3498644949913266e-09,
  mixing_beta=0.5d00,
  mixing_ndim=10,
  electron_maxstep=500,
/
CELL_PARAMETERS alat
    3.711122916506651d0    -0.062717649644767d0    -0.000000000237135d0
    0.194278765219129d0     3.706564793226030d0    -0.000000000745225d0
   -1.952700840689584d0    -1.821923571281480d0     2.577580402660008d0
ATOMIC_SPECIES
In1 114.818d00 In.UPF
ATOMIC_POSITIONS {crystal}
In1      0.000000000000000d0     0.000000000000000d0     0.000000000000000d0
K_POINTS automatic
1 1 1  0 0 0 
