&CONTROL
  calculation='scf',
  prefix='calc',
  pseudo_dir='/home/lls34/programs/QuantumExpresso/pseudopotentials/use_pot',
  outdir='.',
  tprnfor=.true.,
  tstress=.true.,
  etot_conv_thr=1d0,
  forc_conv_thr=0.0019446903957408628d00,
/
&SYSTEM
  ibrav=0,
  celldm(1)=1.8897261245650618d0,
  nat=80,
  ntyp=2,
  ecutwfc=65.0d00,
  ecutrho=520.0d00,
  nbnd=372,
  occupations='smearing',
  smearing='gaussian',
  degauss=0.007349864494991328d00,
  nspin=2,
  starting_magnetization(1)=0.0d00,
  starting_magnetization(2)=0.0d00,
  input_dft='PBE',
  nosym=.false.,
  noinv=.false.,
  nosym_evc=.false.,
  no_t_rev=.false.,
/
&ELECTRONS
  diagonalization='david',
  conv_thr=7.3498644949913266e-09,
  mixing_beta=0.5d00,
  mixing_ndim=10,
  electron_maxstep=500,
/
CELL_PARAMETERS alat
   11.758272117191011d0     0.000205625659082d0     0.000141981628149d0
    6.452192683936216d0     9.829861280483758d0     0.000141981628150d0
    6.452192683936214d0     3.482914163206435d0     9.192142391491137d0
ATOMIC_SPECIES
In1 114.818d00 In.UPF
O1 15.999d00 O.UPF
ATOMIC_POSITIONS {crystal}
In1      0.428609273381728d0     0.428609274778580d0     0.428609274412658d0
In1      0.928609273381728d0     0.428609274778580d0     0.428609274412658d0
In1      0.428609273381728d0     0.928609274778580d0     0.428609274412658d0
In1      0.928609273381728d0     0.928609274778580d0     0.428609274412658d0
In1      0.428609273381728d0     0.428609274778580d0     0.928609274412658d0
In1      0.928609273381728d0     0.428609274778580d0     0.928609274412658d0
In1      0.428609273381728d0     0.928609274778580d0     0.928609274412658d0
In1      0.928609273381728d0     0.928609274778581d0     0.928609274412658d0
In1      0.321390725989767d0     0.321390726899528d0     0.321390726015890d0
In1      0.821390725989766d0     0.321390726899528d0     0.321390726015890d0
In1      0.321390725989767d0     0.821390726899528d0     0.321390726015890d0
In1      0.821390725989767d0     0.821390726899528d0     0.321390726015890d0
In1      0.321390725989767d0     0.321390726899528d0     0.821390726015890d0
In1      0.821390725989766d0     0.321390726899528d0     0.821390726015890d0
In1      0.321390725989766d0     0.821390726899528d0     0.821390726015890d0
In1      0.821390725989767d0     0.821390726899528d0     0.821390726015890d0
In1      0.178609273688644d0     0.178609274558314d0     0.178609274269802d0
In1      0.678609273688644d0     0.178609274558314d0     0.178609274269802d0
In1      0.178609273688644d0     0.678609274558314d0     0.178609274269802d0
In1      0.678609273688644d0     0.678609274558314d0     0.178609274269802d0
In1      0.178609273688644d0     0.178609274558314d0     0.678609274269802d0
In1      0.678609273688644d0     0.178609274558314d0     0.678609274269802d0
In1      0.178609273688644d0     0.678609274558314d0     0.678609274269802d0
In1      0.678609273688644d0     0.678609274558314d0     0.678609274269802d0
In1      0.071390726296682d0     0.071390726679262d0     0.071390725873034d0
In1      0.571390726296682d0     0.071390726679262d0     0.071390725873034d0
In1      0.071390726296682d0     0.571390726679262d0     0.071390725873034d0
In1      0.571390726296682d0     0.571390726679262d0     0.071390725873034d0
In1      0.071390726296682d0     0.071390726679262d0     0.571390725873034d0
In1      0.571390726296682d0     0.071390726679262d0     0.571390725873034d0
In1      0.071390726296682d0     0.571390726679262d0     0.571390725873034d0
In1      0.571390726296682d0     0.571390726679262d0     0.571390725873034d0
O1       0.375000000353879d0     0.226662219253369d0     0.023337780887407d0
O1       0.875000000353879d0     0.226662219253369d0     0.023337780887407d0
O1       0.375000000353879d0     0.726662219253369d0     0.023337780887407d0
O1       0.875000000353879d0     0.726662219253369d0     0.023337780887407d0
O1       0.375000000353879d0     0.226662219253369d0     0.523337780887407d0
O1       0.875000000353879d0     0.226662219253369d0     0.523337780887407d0
O1       0.375000000353879d0     0.726662219253369d0     0.523337780887407d0
O1       0.875000000353879d0     0.726662219253369d0     0.523337780887407d0
O1       0.273337780888783d0     0.476662219212155d0     0.125000000526807d0
O1       0.773337780888783d0     0.476662219212155d0     0.125000000526807d0
O1       0.273337780888783d0     0.976662219212155d0     0.125000000526807d0
O1       0.773337780888783d0     0.976662219212155d0     0.125000000526807d0
O1       0.273337780888783d0     0.476662219212155d0     0.625000000526807d0
O1       0.773337780888783d0     0.476662219212155d0     0.625000000526806d0
O1       0.273337780888783d0     0.976662219212155d0     0.625000000526807d0
O1       0.773337780888783d0     0.976662219212155d0     0.625000000526807d0
O1       0.476662218958115d0     0.125000000687541d0     0.273337781118823d0
O1       0.976662218958115d0     0.125000000687541d0     0.273337781118823d0
O1       0.476662218958115d0     0.625000000687541d0     0.273337781118823d0
O1       0.976662218958115d0     0.625000000687540d0     0.273337781118823d0
O1       0.476662218958115d0     0.125000000687541d0     0.773337781118823d0
O1       0.976662218958115d0     0.125000000687541d0     0.773337781118823d0
O1       0.476662218958115d0     0.625000000687541d0     0.773337781118823d0
O1       0.976662218958115d0     0.625000000687541d0     0.773337781118823d0
O1       0.023337780720295d0     0.375000000770302d0     0.226662219166869d0
O1       0.523337780720295d0     0.375000000770302d0     0.226662219166869d0
O1       0.023337780720295d0     0.875000000770302d0     0.226662219166869d0
O1       0.523337780720295d0     0.875000000770302d0     0.226662219166869d0
O1       0.023337780720295d0     0.375000000770302d0     0.726662219166869d0
O1       0.523337780720295d0     0.375000000770302d0     0.726662219166869d0
O1       0.023337780720295d0     0.875000000770302d0     0.726662219166869d0
O1       0.523337780720295d0     0.875000000770302d0     0.726662219166869d0
O1       0.124999999882770d0     0.273337781187151d0     0.476662219398292d0
O1       0.624999999882770d0     0.273337781187151d0     0.476662219398292d0
O1       0.124999999882770d0     0.773337781187151d0     0.476662219398292d0
O1       0.624999999882770d0     0.773337781187151d0     0.476662219398292d0
O1       0.124999999882770d0     0.273337781187151d0     0.976662219398292d0
O1       0.624999999882769d0     0.273337781187151d0     0.976662219398292d0
O1       0.124999999882770d0     0.773337781187151d0     0.976662219398292d0
O1       0.624999999882770d0     0.773337781187151d0     0.976662219398292d0
O1       0.226662219347865d0     0.023337781228365d0     0.374999999758892d0
O1       0.726662219347865d0     0.023337781228365d0     0.374999999758892d0
O1       0.226662219347865d0     0.523337781228365d0     0.374999999758892d0
O1       0.726662219347865d0     0.523337781228365d0     0.374999999758892d0
O1       0.226662219347865d0     0.023337781228365d0     0.874999999758892d0
O1       0.726662219347865d0     0.023337781228365d0     0.874999999758892d0
O1       0.226662219347865d0     0.523337781228364d0     0.874999999758892d0
O1       0.726662219347865d0     0.523337781228365d0     0.874999999758892d0
K_POINTS automatic
3 3 3  0 0 0 
