&CONTROL
  calculation='scf',
  prefix='calc',
  pseudo_dir='/home/lls34/programs/QuantumExpresso/pseudopotentials/use_pot',
  outdir='.',
  tprnfor=.true.,
  tstress=.true.,
  etot_conv_thr=1d0,
  forc_conv_thr=0.0019446903957408628d00,
/
&SYSTEM
  ibrav=0,
  celldm(1)=1.8897261245650618d0,
  nat=80,
  ntyp=2,
  ecutwfc=65.0d00,
  ecutrho=520.0d00,
  nbnd=372,
  occupations='smearing',
  smearing='gaussian',
  degauss=0.007349864494991328d00,
  nspin=2,
  starting_magnetization(1)=0.0d00,
  starting_magnetization(2)=0.0d00,
  input_dft='PBE',
  nosym=.false.,
  noinv=.false.,
  nosym_evc=.false.,
  no_t_rev=.false.,
/
&ELECTRONS
  diagonalization='david',
  conv_thr=7.3498644949913266e-09,
  mixing_beta=0.5d00,
  mixing_ndim=10,
  electron_maxstep=500,
/
CELL_PARAMETERS alat
   11.758272117191011d0     0.000205625659082d0     0.000141981628149d0
    6.452192683936216d0     9.829861280483758d0     0.000141981628150d0
    6.452192683936214d0     3.482914163206435d0     9.192142391491137d0
ATOMIC_SPECIES
In1 114.818d00 In.UPF
O1 15.999d00 O.UPF
ATOMIC_POSITIONS {crystal}
In1      0.428609273381728d0     0.428609274778580d0     0.428609274412658d0
In1      0.928609273690512d0     0.428609274522102d0     0.428609274324095d0
In1      0.428609273259226d0     0.928609274785355d0     0.428609274324098d0
In1      0.928609273568011d0     0.928609274528876d0     0.428609274235535d0
In1      0.428609273139853d0     0.428609274451495d0     0.928609274875500d0
In1      0.928609273448637d0     0.428609274195016d0     0.928609274786937d0
In1      0.428609273017351d0     0.928609274458269d0     0.928609274786940d0
In1      0.928609273326135d0     0.928609274201791d0     0.928609274698377d0
In1      0.321390725989767d0     0.321390726899528d0     0.321390726015890d0
In1      0.821390726298551d0     0.321390726643050d0     0.321390725927327d0
In1      0.321390725867264d0     0.821390726906303d0     0.321390725927330d0
In1      0.821390726176049d0     0.821390726649825d0     0.321390725838767d0
In1      0.321390725747891d0     0.321390726572443d0     0.821390726478732d0
In1      0.821390726056676d0     0.321390726315964d0     0.821390726390169d0
In1      0.321390725625390d0     0.821390726579217d0     0.821390726390172d0
In1      0.821390725934174d0     0.821390726322739d0     0.821390726301609d0
In1      0.178609273688644d0     0.178609274558314d0     0.178609274269802d0
In1      0.678609273997428d0     0.178609274301835d0     0.178609274181239d0
In1      0.178609273566142d0     0.678609274565089d0     0.178609274181242d0
In1      0.678609273874926d0     0.678609274308610d0     0.178609274092679d0
In1      0.178609273446769d0     0.178609274231228d0     0.678609274732644d0
In1      0.678609273755553d0     0.178609273974750d0     0.678609274644081d0
In1      0.178609273324267d0     0.678609274238003d0     0.678609274644084d0
In1      0.678609273633051d0     0.678609273981524d0     0.678609274555521d0
In1      0.071390726296682d0     0.071390726679262d0     0.071390725873034d0
In1      0.571390726605466d0     0.071390726422783d0     0.071390725784471d0
In1      0.071390726174180d0     0.571390726686037d0     0.071390725784474d0
In1      0.571390726482964d0     0.571390726429558d0     0.071390725695911d0
In1      0.071390726054807d0     0.071390726352176d0     0.571390726335876d0
In1      0.571390726363591d0     0.071390726095698d0     0.571390726247313d0
In1      0.071390725932305d0     0.571390726358951d0     0.571390726247316d0
In1      0.571390726241089d0     0.571390726102472d0     0.571390726158753d0
O1       0.375000000786931d0     0.227562312236640d0     0.023337781127098d0
O1       0.875000000662663d0     0.226662218996891d0     0.023337780798844d0
O1       0.375000000231377d0     0.726662219260144d0     0.023337780798847d0
O1       0.875000000540161d0     0.726662219003665d0     0.023337780710284d0
O1       0.375000000112004d0     0.226662218926283d0     0.523337781350249d0
O1       0.875000000420788d0     0.226662218669805d0     0.523337781261686d0
O1       0.374999999989502d0     0.726662218933058d0     0.523337781261689d0
O1       0.875000000298286d0     0.726662218676579d0     0.523337781173126d0
O1       0.273337780888783d0     0.476662219212155d0     0.125000000526807d0
O1       0.773337781197567d0     0.476662218955677d0     0.125000000438244d0
O1       0.273337780766281d0     0.976662219218930d0     0.125000000438246d0
O1       0.773337781075065d0     0.976662218962451d0     0.125000000349684d0
O1       0.273337780646908d0     0.476662218885069d0     0.625000000989649d0
O1       0.773337780955692d0     0.476662218628591d0     0.625000000901086d0
O1       0.273337780524406d0     0.976662218891844d0     0.625000000901089d0
O1       0.773337780833190d0     0.976662218635366d0     0.625000000812526d0
O1       0.476662218958115d0     0.125000000687541d0     0.273337781118823d0
O1       0.976662219266899d0     0.125000000431062d0     0.273337781030260d0
O1       0.476662218835613d0     0.625000000694315d0     0.273337781030263d0
O1       0.976662219144397d0     0.625000000437837d0     0.273337780941700d0
O1       0.476662218716240d0     0.125000000360455d0     0.773337781581665d0
O1       0.976662219025024d0     0.125000000103976d0     0.773337781493102d0
O1       0.476662218593738d0     0.625000000367229d0     0.773337781493105d0
O1       0.976662218902522d0     0.625000000110751d0     0.773337781404542d0
O1       0.023337780720295d0     0.375000000770302d0     0.226662219166869d0
O1       0.523337781029079d0     0.375000000513823d0     0.226662219078306d0
O1       0.023337780597793d0     0.875000000777076d0     0.226662219078309d0
O1       0.523337780906577d0     0.875000000520598d0     0.226662218989746d0
O1       0.023337780478420d0     0.375000000443216d0     0.726662219629711d0
O1       0.523337780787204d0     0.375000000186738d0     0.726662219541148d0
O1       0.023337780355918d0     0.875000000449990d0     0.726662219541151d0
O1       0.523337780664702d0     0.875000000193512d0     0.726662219452588d0
O1       0.124999999882770d0     0.273337781187151d0     0.476662219398292d0
O1       0.625000000191554d0     0.273337780930672d0     0.476662219309729d0
O1       0.124999999760268d0     0.773337781193925d0     0.476662219309732d0
O1       0.625000000069052d0     0.773337780937447d0     0.476662219221169d0
O1       0.124999999640894d0     0.273337780860065d0     0.976662219861134d0
O1       0.624999999949679d0     0.273337780603586d0     0.976662219772572d0
O1       0.124999999518393d0     0.773337780866839d0     0.976662219772574d0
O1       0.624999999827176d0     0.773337780610361d0     0.976662219684011d0
O1       0.226662219347865d0     0.023337781228365d0     0.374999999758892d0
O1       0.726662219656649d0     0.023337780971886d0     0.374999999670330d0
O1       0.226662219225363d0     0.523337781235139d0     0.374999999670332d0
O1       0.726662219534147d0     0.523337780978661d0     0.374999999581769d0
O1       0.226662219105990d0     0.023337780901279d0     0.875000000221735d0
O1       0.726662219414774d0     0.023337780644800d0     0.875000000133172d0
O1       0.226662218983488d0     0.523337780908053d0     0.875000000133174d0
O1       0.726662219292272d0     0.523337780651575d0     0.875000000044612d0
K_POINTS automatic
3 3 3  0 0 0 
