&CONTROL
  calculation='scf',
  prefix='calc',
  pseudo_dir='/gpfs/nobackup/projects/quantumchemistry/rom_cq/SOAPML/data/In2O3/espresso_calculations/psp_copy/',
  outdir='.',
  tprnfor=.true.,
  tstress=.true.,
  disk_io='none',
  etot_conv_thr=1d0,
  forc_conv_thr=0.0019446903957408628d00,
/
&SYSTEM
  ibrav=0,
  celldm(1)=1.8897261245650618d0,
  nat=80,
  ntyp=2,
  ecutwfc=65.0d00,
  ecutrho=520.0d00,
  nbnd=372,
  occupations='smearing',
  smearing='gaussian',
  degauss=0.007349864494991328d00,
  nspin=2,
  starting_magnetization(1)=0.7692307692307693d00,
  starting_magnetization(2)=0.6666666666666666d00,
  input_dft='PBE',
  nosym=.false.,
  noinv=.false.,
  nosym_evc=.false.,
  no_t_rev=.false.,
/
&ELECTRONS
  diagonalization='david',
  conv_thr=7.3498644949913266e-09,
  mixing_beta=0.5d00,
  mixing_ndim=10,
  electron_maxstep=500,
/
CELL_PARAMETERS alat
   11.758812762970885d0     0.000000000000000d0     0.000000000000000d0
    6.452317444010323d0     9.830426094342354d0     0.000000000000000d0
    6.452317444010323d0     3.482981509091842d0     9.192720870539437d0
ATOMIC_SPECIES
In1 114.818d00 In.UPF
O1 15.999d00 O.UPF
ATOMIC_POSITIONS {crystal}
In1      0.428607500064811d0     0.428607500082193d0     0.428607499943463d0
In1      0.928607499938486d0     0.428607500082193d0     0.428607499943463d0
In1      0.428607499736386d0     0.928607500369955d0     0.428607499943463d0
In1      0.928607499610060d0     0.928607500369955d0     0.428607499943463d0
In1      0.428607499407533d0     0.428607500454695d0     0.928607500458031d0
In1      0.928607499281207d0     0.428607500454695d0     0.928607500458031d0
In1      0.428607499637295d0     0.928607499725207d0     0.928607500458031d0
In1      0.928607499510969d0     0.928607499725207d0     0.928607500458031d0
In1      0.321392499954851d0     0.321392499382327d0     0.321392500828390d0
In1      0.821392499828525d0     0.321392499382327d0     0.321392500828390d0
In1      0.321392499626425d0     0.821392499670089d0     0.321392500828390d0
In1      0.821392500350525d0     0.821392499670089d0     0.321392500828390d0
In1      0.321392500241179d0     0.321392499122999d0     0.821392500255140d0
In1      0.821392500965280d0     0.321392499122999d0     0.821392500255140d0
In1      0.321392500763180d0     0.821392499410761d0     0.821392500255140d0
In1      0.821392500636854d0     0.821392499410761d0     0.821392500255140d0
In1      0.178607500341733d0     0.178607500260687d0     0.178607499686179d0
In1      0.678607500215407d0     0.178607500260687d0     0.178607499686179d0
In1      0.178607500013307d0     0.678607500548449d0     0.178607499686179d0
In1      0.678607499886982d0     0.678607500548449d0     0.178607499686179d0
In1      0.178607500242641d0     0.178607499615938d0     0.678607500200747d0
In1      0.678607500116316d0     0.178607499615938d0     0.678607500200747d0
In1      0.178607499914216d0     0.678607499903700d0     0.678607500200747d0
In1      0.678607499787890d0     0.678607499903700d0     0.678607500200747d0
In1      0.071392498823159d0     0.071392500578070d0     0.071392500571105d0
In1      0.571392498696833d0     0.071392500578070d0     0.071392500571105d0
In1      0.071392499052920d0     0.571392499848582d0     0.071392500571105d0
In1      0.571392498926594d0     0.571392499848582d0     0.071392500571105d0
In1      0.071392499109488d0     0.071392500318742d0     0.571392499997856d0
In1      0.571392498983162d0     0.071392500318742d0     0.571392499997856d0
In1      0.071392499631488d0     0.571392500606504d0     0.571392499997856d0
In1      0.571392499505162d0     0.571392500606504d0     0.571392499997856d0
O1       0.374999999928514d0     0.227539551941634d0     0.023360500446414d0
O1       0.874999999645440d0     0.226639500416391d0     0.023360500446414d0
O1       0.374999999443341d0     0.726639500704153d0     0.023360500446414d0
O1       0.874999999317015d0     0.726639500704153d0     0.023360500446414d0
O1       0.375000000058095d0     0.226639500157063d0     0.523360499873165d0
O1       0.874999999931769d0     0.226639500157063d0     0.523360499873165d0
O1       0.374999999729670d0     0.726639500444825d0     0.523360499873165d0
O1       0.875000000453770d0     0.726639500444825d0     0.523360499873165d0
O1       0.273360500416666d0     0.476639500641886d0     0.124999999040825d0
O1       0.773360500290340d0     0.476639500641886d0     0.124999999040825d0
O1       0.273360500646428d0     0.976639499912398d0     0.124999999040825d0
O1       0.773360500520102d0     0.976639499912398d0     0.124999999040825d0
O1       0.273360500317575d0     0.476639499997138d0     0.624999999555393d0
O1       0.773360500191249d0     0.476639499997138d0     0.624999999555393d0
O1       0.273360499989149d0     0.976639500284900d0     0.624999999555393d0
O1       0.773360499862823d0     0.976639500284900d0     0.624999999555393d0
O1       0.476639499750352d0     0.124999999892185d0     0.273360500703698d0
O1       0.976639499624026d0     0.124999999892185d0     0.273360500703698d0
O1       0.476639499421926d0     0.625000000179947d0     0.273360500703698d0
O1       0.976639499295600d0     0.625000000179947d0     0.273360500703698d0
O1       0.476639500036681d0     0.124999999632857d0     0.773360500130449d0
O1       0.976639499910355d0     0.124999999632857d0     0.773360500130449d0
O1       0.476639499708255d0     0.624999999920619d0     0.773360500130449d0
O1       0.976639500432355d0     0.624999999920619d0     0.773360500130449d0
O1       0.023360500546232d0     0.374999999750828d0     0.226639499810870d0
O1       0.523360500419906d0     0.374999999750828d0     0.226639499810870d0
O1       0.023360500217806d0     0.875000000038590d0     0.226639499810870d0
O1       0.523360500091480d0     0.875000000038590d0     0.226639499810870d0
O1       0.023360500447140d0     0.374999999106080d0     0.726639500325438d0
O1       0.523360500320814d0     0.374999999106080d0     0.726639500325438d0
O1       0.023360500118715d0     0.874999999393842d0     0.726639500325438d0
O1       0.523360500842815d0     0.874999999393842d0     0.726639500325438d0
O1       0.124999999966630d0     0.273360500243872d0     0.476639500068154d0
O1       0.624999999840304d0     0.273360500243872d0     0.476639500068154d0
O1       0.124999999638204d0     0.773360500531634d0     0.476639500068154d0
O1       0.624999999511878d0     0.773360500531634d0     0.476639500068154d0
O1       0.125000000252959d0     0.273360499984544d0     0.976639499494905d0
O1       0.625000000126633d0     0.273360499984544d0     0.976639499494905d0
O1       0.124999999924533d0     0.773360500272306d0     0.976639499494905d0
O1       0.624999999798208d0     0.773360500272306d0     0.976639499494905d0
O1       0.226639499800332d0     0.023360499771968d0     0.374999999298109d0
O1       0.726639500524432d0     0.023360499771968d0     0.374999999298109d0
O1       0.226639500322333d0     0.523360500059730d0     0.374999999298109d0
O1       0.726639500196007d0     0.523360500059730d0     0.374999999298109d0
O1       0.226639499993480d0     0.023360500144469d0     0.874999999812677d0
O1       0.726639499867154d0     0.023360500144469d0     0.874999999812677d0
O1       0.226639500223242d0     0.523360499414982d0     0.874999999812677d0
O1       0.726639500096915d0     0.523360499414982d0     0.874999999812677d0
K_POINTS automatic
3 3 3  0 0 0 
