&CONTROL
  calculation='scf',
  prefix='calc',
  pseudo_dir='/home/lls34/programs/QuantumExpresso/pseudopotentials/use_pot',
  outdir='.',
  tprnfor=.true.,
  tstress=.true.,
  etot_conv_thr=1d0,
  forc_conv_thr=0.0019446903957408628d00,
/
&SYSTEM
  ibrav=0,
  celldm(1)=1.8897261245650618d0,
  nat=1,
  ntyp=1,
  ecutwfc=65.0d00,
  ecutrho=520.0d00,
  nbnd=26,
  occupations='smearing',
  smearing='gaussian',
  degauss=0.007349864494991328d00,
  nspin=2,
  starting_magnetization(1)=0.0d00,
  input_dft='PBE',
  nosym=.false.,
  noinv=.false.,
  nosym_evc=.false.,
  no_t_rev=.false.,
/
&ELECTRONS
  diagonalization='david',
  conv_thr=7.3498644949913266e-09,
  mixing_beta=0.5d00,
  mixing_ndim=10,
  electron_maxstep=500,
/
CELL_PARAMETERS alat
    3.710495740010202d0    -0.025606420479702d0    -0.000000000241879d0
    0.231344413151388d0     3.708507580878218d0    -0.000000000760129d0
   -1.970920076402394d0    -1.841450579688373d0     2.629132010713208d0
ATOMIC_SPECIES
In1 114.818d00 In.UPF
ATOMIC_POSITIONS {crystal}
In1      0.000000000000000d0     0.000000000000000d0     0.000000000000000d0
K_POINTS automatic
1 1 1  0 0 0 
