&CONTROL
  calculation='scf',
  prefix='calc',
  pseudo_dir='/home/lls34/programs/QuantumExpresso/pseudopotentials/use_pot',
  outdir='.',
  tprnfor=.true.,
  tstress=.true.,
  etot_conv_thr=1d0,
  forc_conv_thr=0.0019446903957408628d00,
/
&SYSTEM
  ibrav=0,
  celldm(1)=1.8897261245650618d0,
  nat=20,
  ntyp=2,
  ecutwfc=65.0d00,
  ecutrho=520.0d00,
  nbnd=108,
  occupations='smearing',
  smearing='gaussian',
  degauss=0.007349864494991328d00,
  nspin=2,
  starting_magnetization(1)=0.0d00,
  starting_magnetization(2)=0.0d00,
  input_dft='PBE',
  nosym=.false.,
  noinv=.false.,
  nosym_evc=.false.,
  no_t_rev=.false.,
/
&ELECTRONS
  diagonalization='david',
  conv_thr=7.3498644949913266e-09,
  mixing_beta=0.5d00,
  mixing_ndim=10,
  electron_maxstep=500,
/
CELL_PARAMETERS alat
    5.593732000000001d0     0.000000000000000d0     0.000000000000000d0
    0.000000000000000d0     5.688408000000000d0     0.000000000000000d0
    0.000000000000000d0     0.000000000000000d0     8.082655000000003d0
ATOMIC_SPECIES
In1 114.818d00 In.UPF
O1 15.999d00 O.UPF
ATOMIC_POSITIONS {crystal}
In1      0.247505000239554d0     0.528587000088601d0     0.114944000455296d0
In1      0.252494999760446d0     0.028587000088601d0     0.385055999544704d0
In1      0.252494999760446d0     0.471412999911399d0     0.614944000455296d0
In1      0.247505000239554d0     0.971412999911399d0     0.885055999544704d0
In1      0.752494999760446d0     0.471412999911399d0     0.885055999544704d0
In1      0.747505000239554d0     0.971412999911399d0     0.614944000455296d0
In1      0.747505000239554d0     0.528587000088601d0     0.385055999544704d0
In1      0.752494999760446d0     0.028587000088601d0     0.114944000455296d0
O1       0.390088000283174d0     0.604583999600591d0     0.849748999555220d0
O1       0.109911999716826d0     0.104583999600591d0     0.650251000444780d0
O1       0.109911999716826d0     0.395416000399409d0     0.349748999555220d0
O1       0.390088000283174d0     0.895416000399409d0     0.150251000444780d0
O1       0.609911999716826d0     0.395416000399409d0     0.150251000444780d0
O1       0.890088000283174d0     0.895416000399409d0     0.349748999555220d0
O1       0.890088000283174d0     0.604583999600591d0     0.650251000444780d0
O1       0.609911999716826d0     0.104583999600591d0     0.849748999555220d0
O1       0.957256000108693d0     0.750000000000000d0     1.000000000000000d0
O1       0.542743999891307d0     0.250000000000000d0     0.500000000000000d0
O1       0.042743999891307d0     0.250000000000000d0     1.000000000000000d0
O1       0.457256000108693d0     0.750000000000000d0     0.500000000000000d0
K_POINTS automatic
1 1 1  0 0 0 
